# Solution for model Master Problem
# Objective value = 7.2640693861673321e+02
theta[1] 0
theta[2] 0
theta[3] 0
theta[4] 1
theta[5] 0
theta[6] 1
theta[7] 0
theta[8] 0
theta[9] 0
theta[10] 0
theta[11] 0
theta[12] 0
theta[13] 1
theta[14] 0
theta[15] 1
theta[16] 0
theta[17] 0
theta[18] 1
theta[19] 0
theta[20] 0
theta[21] 1
theta[22] 1
theta[23] 1
theta[24] 0
theta[25] 0
theta[26] 0
theta[27] 0
theta[28] 0
theta[29] 1
theta[30] 0
theta[31] 0
theta[32] 0
theta[33] 0
theta[34] 1
theta[35] 0
theta[36] 0
theta[37] 1
